(set-logic QF_NRA)
(declare-fun y1 () Real)
(declare-fun y12 () Real)
(declare-fun y23 () Real)
(declare-fun y34 () Real)
(declare-fun y41 () Real)
(assert (<= 2.5854 y1))
(assert (<= y1 2.60175))
(assert (<= 2.0 y12))
(assert (<= y12 2.46350884418))
(assert (<= 2.0 y23))
(assert (<= y23 2.46350884418))
(assert (<= 2.0 y34))
(assert (<= y34 2.46350884418))
(assert (<= 2.0 y41))
(assert (<= y41 2.46350884418))
(assert (not (< (+ (* 2.0 (* 3.14159265 (- 0.053582))) (+ (* (+ 0.049452 (+ (- 0.013853) (+ (- 0.020791) (- 0.013853)))) y1) (+ (* 2.0 (* (+ (- 0.06302) 0.06302) y12)) (+ (* 2.0 (* (+ 0.06302 (- 0.06302)) y23)) (+ (* 2.0 (* (+ (- 0.06302) (- 0.062897)) y34)) (+ (* 2.0 (* (+ (- 0.062897) (- 0.06302)) y41)) (+ 0.475514 (+ (- 0.389234) (+ 0.637132 0.618101))))))))) 0.0)))
(check-sat)
(exit)
